NAME : rnd59_20.tsp
TYPE : TSP
DIMENSION : 20
EDGE_WEIGHT_TYPE : EUC_2D
NODE_COORD_SECTION
0 31 121
1 649 120
2 415 103
3 991 940
4 603 522
5 887 40
6 358 788
7 493 961
8 487 998
9 274 444
10 827 949
11 795 956
12 198 416
13 579 146
14 991 743
15 181 528
16 559 1
17 827 300
18 204 684
19 460 517
